
 102   30
  10   10   10   10   10   10   10   10   10   10   10   10   10   10   10   10   10   10   10   10   10   10   10   10   10   10   10   10   10   10

   0   0   0   0   0   0   0   0   0   0   0   0   0   0   0   0   0   0   0   0   0   0   0   0   0   0   0   0   0   0   0  27 2 3 4 5 6 7 8 9 10 12 13 14 15 17 18 19 20 23 27 29 30 32 35 40 43 45 49 
   9   0   0   0   0   0   0   0   0   0   0   0   0   1   0   0   0   0   0   0   0   1   0   0   3   0   0   0   0   0   0  15 69 63 56 54 53 51 47 42 38 37 34 24 22 16 11 
   6   1   0   0   0   0   0   0   0   0   0   0   0   0   0   0   0   0   0   0   0   0   0   1   0   0   0   1   0   0   1  13 69 65 62 61 56 55 54 53 51 50 48 26 16 
   6   0   0   0   0   0   0   0   0   0   0   2   0   0   0   0   0   0   2   0   1   0   0   0   0   0   0   0   0   3   0  16 100 69 65 62 56 54 51 50 46 44 42 41 36 33 31 28 
   6   0   0   0   0   0   0   0   0   0   6   0   0   0   0   0   0   0   0   0   0   0   0   0   0   0   0   0   0   0   0  16 101 75 69 68 65 63 62 57 55 53 51 48 44 41 38 36 
   6   0   0   0   0   0   0   0   0   0   0   0   0   0   0   0   0   0   0   0   0   0   0   0   0   0   0   0   6   0   5  15 77 76 75 69 68 67 59 57 55 54 51 41 39 36 34 
   9   0   0   0   0   0   0   2   0   0   0   0   0   9   0   4   0   1   0   0   0   0   0   0   0   0   0   0   0   0   0  10 69 68 66 65 61 56 54 44 22 21 
   4   0   0   0   0   0   0   0   0   0   0   0   0   0   0   0   0   0   0   0   0   0   0   0   0   0   0   0   0   0   0  11 100 77 64 62 61 60 57 54 50 25 22 
  10   0   0   0   0   0   0   0   0   0   4   0   0   0   0   0   0   0   0   0   0   0   0   0   0   0   0   0   0   0   6  20 101 100 99 96 95 94 77 72 69 68 65 64 62 61 60 57 55 52 46 44 
   3   0   0   1   0   0   0   0   0   0   0   6   0   8   0   0   0   0   0   0   0   0   0   0   0   0   3   0   3   0   0  14 101 100 99 74 68 62 61 59 55 54 51 48 44 36 
   5   0   0   0   0   0   0   0   0   0   0   0   0   0   0   0   0   0   6   0   0   0   0   0   0   0   0   3   0   0   0  18 101 100 94 77 74 70 68 67 64 62 61 60 59 57 55 50 46 41 
   4   0   0   0   0   0   0   0   4   0   0   0   0   0   0   0   0   0   0   0   0   0   0   0   0   1   0   0   3   0   7  11 100 98 68 64 61 59 54 53 51 44 24 
   3   0   0   0   0   0   0   0   0   0   0   5   0   0   0   0   0   0   0   0   0   0   0   0   0   4   0   0   0   4   0  19 100 97 96 95 75 74 72 71 69 68 67 66 64 61 59 57 55 54 44 
   4   0   0   0   0   0   0   3   0   0   0   0   1   0   0   0   0   0   0   0   0   0   0   0   0   5   0   0   0   0   9  16 101 100 98 94 91 77 76 74 70 67 66 64 62 54 51 41 
   2   0   0   0   0   0   0   0   0   0   0   0   0   0   6   2   0   0   0   0   0   0   0   0   0   0   0   0   0   0   8  10 101 74 68 61 59 58 55 54 41 36 
   3   0   0   0   0   0   0   0   3   0   0   0   7   4   0   0   0   0   0   0   0   0   0   8   0   6   0   0   0   0   0   9 97 92 68 67 59 46 44 41 36 
   6   0   0   0   1   2   0   0   7   2   0   0   0   0   0   0   0   0   0   0   0   0   0   7   0   7   0   7   0   0   0  14 101 99 95 94 90 75 74 72 71 67 64 60 50 44 
   1   0   0   0   6   3   0   8   0   0   0   0   0   0   0   0   0   0   0   0   0   0   0   0   0   0   0   0   7   6   0  20 101 100 98 96 94 92 88 87 84 77 75 74 73 71 68 67 66 63 57 53 
   7   0   0   3   0   0   0   0   0   0   0   0   4   0   0   0   1   0   0   0   0   0   0   0   4   0   4   0   0   0   0  13 98 94 91 89 77 70 68 67 66 62 61 59 41 
  10   0   0   0   0   0   0   0   0   0   0   0   0   0   2   0   0   0   0   0   0   0   0   0   5   6   0   4   0   0   0  12 99 95 94 72 71 64 63 60 59 55 53 50 
   1   0   0   0   0   0   0   0   5   0   0   0   0   0   0   0   0   0   0   0   0   0   0   0   6   0   0   0   3   0   0  13 96 94 88 85 84 76 75 74 64 63 59 53 51 
   7   0   0   0   0   6   0   0   0   0   0   0   0   0   8   0   0   0   4   0   0   0   0   7   0   0   0   0   0   0   0  13 98 94 92 91 89 88 86 76 74 70 67 59 41 
   2   0   0   0   0   0   0   0   0   0   0   0   0   4   0   0   0   9   0   0   0   0   0   7  10   0   7   0   0   0   0  11 99 98 91 88 74 71 70 68 64 59 42 
   1   0   0   0   0   0   2   0   0   0   0   0   0   0   8   0   0   0   0   0   2   0   0   0   0   0   5   0   5   6   6  20 97 96 95 94 92 91 90 89 88 87 84 82 76 74 73 72 71 70 67 66 
   7   0   0   0   0   0   5   0   0   0   0   0   0   0   0   0   0   0   0   0   0   0   0   0   7   0   0   4   0   0   0  18 99 98 97 94 93 92 91 88 87 84 81 79 75 72 70 67 66 56 
   3   0   0   0   0  10  10   0   0   0   6   0   0   0   0   0   0   7   0   0   0   0   1   0   2   0   8   0   0   0   0  18 101 99 98 97 94 90 88 87 85 84 81 75 74 72 71 70 67 63 
  10   0   0   0   0   0   0   0   0   0   0   0   0   0   0  10   0   0   0   0   0   0   0   0   0   0   0   0   0   0   0  13 99 96 89 87 77 75 71 70 69 68 62 59 57 
   1   0   0   6   8   0   0   7   0   0   7   0   0   0   0   0   9   0   0   0   0   0   0   0   0   0   0   0   0   0   0   9 99 94 84 77 72 64 60 55 53 
   8   0   0   0   0   0   0   0   0   0   0   0   0   0   0   0   0   0   0   0   0   0   9   0   0   0   0   0   8   0   0  13 99 95 94 89 88 84 81 75 71 70 66 63 61 
   4   0   1   0   8   0   0   0   0   0   0   0   0   0   0   0   6   0   0   2   0   0   9   0   0   0   0   0   0   0   0  17 93 92 91 89 88 87 86 85 84 81 79 75 72 71 70 67 59 
   4   6   0   0   6   0   0   0   0   0   0   0   0   0   0   0   0   0   0   0   0   0   0   0   0   0   0   0   0   0   0  15 101 99 98 94 90 88 87 80 76 75 73 72 68 67 64 
   7   0   0   0   0   0   0   0   0   0   0   0   0   0   0   0   0   0   0   0   0   0   0   0   0  10   0   0   0   0   0  13 99 97 96 95 88 84 79 76 75 70 66 64 54 
   3   7   0   0   0   0   0   0   0   0   4   0   5   0   7   0   0   0  10   5   0   0   0   0   0   0   0   0   0   0   0  12 98 95 88 84 76 75 74 73 71 66 64 53 
   4   0   0   0   0   0   0   0   0   0   7   0   0   0   0   0   0   0   0   0   0   0   0   0   0   6   0   0   0   0   0  14 95 94 93 91 90 87 84 82 81 74 72 70 66 61 
   4   0   0   0   0   4   0   0   0   0   7   0   0   4   0   0   0   0   0   0   0   5  10   0   0   0   0   0   0   0   8  16 99 96 92 91 90 88 87 84 83 82 81 80 73 72 71 66 
   2   0   0   0   2   0   0   0   0   0   0   0   0   0   0   0   0   0   0   4   0   0  10   0   0   0   0   0   0   0   0  14 96 95 94 91 88 87 84 81 79 72 71 70 66 64 
   6   0   0   9   0   5   0   0   0   0   0   0   0   0   0   5   0   8   0   0   0   0   0   0   0   0   0   0   5  10   0  12 97 89 87 84 81 79 74 72 70 68 66 59 
   7   0   0   0   0   0   0   0   0   0   0  10   7   0   0   0   0   0   0   0   0   0   0   0   0   0   0   0   0   0   0  15 100 93 91 90 89 88 87 86 85 84 81 79 74 70 67 
   3   0   0   6   0   0   0   0   0   0   0   5   0   4   0   0   4   4   0   0   0   7   0   0   0   0   0   9   0   0   9   9 96 94 92 91 88 87 74 64 53 
  10   0   0   9   0   0   0   0   0   0   0   0   0   0   0   0   0   5   0   0   0   0   0   0   0   0   0   7   0   0   0  13 100 97 95 94 92 89 88 87 81 80 79 75 64 
   7   9   0   0   0   0   0   0   0   8   0   0   0   0   0   0   0   0   0   0   0   0   0   0   0   0   5   0   0   0   0  14 96 95 93 90 87 85 84 83 82 81 80 73 72 71 
   9   0   7   0   5   0   0   0   0   0   0   0   0   0   0   0   0   0   0   6   0   0   0   0   0   0   0   0   0   0   0  14 95 94 93 92 90 89 87 85 84 83 81 80 73 72 
  10   0   5   8   0   0   0   0   0   0   0   0   0   0   0   0   0  10   0   0   0   0   0   0   0   0   0   0   0   0   0  11 95 91 90 89 85 84 83 82 78 76 70 
   7   0   0   0   0   0   0   0   0   0   0   0   0   0   0   0   8   0   0   0   9   0   0   6   0   0   0   0   0   9   0  10 93 91 89 88 86 84 83 76 73 70 
  10   0   0   0   0   0   0   0   0   0   0   0   7   0   0   0   0   0   3   0   0   0   0   7   0   0   5   0   0  10   0  11 95 94 93 91 88 84 83 82 80 79 71 
   2   0   0  10   0   0   0   0   0   0   0   3   0  10   3   0   0   0   0   0   0   0   0   0   0   0   0   0   0   0   0  10 90 85 84 83 82 81 80 75 73 71 
   3   0   0   0   0   0   0   0   0   0   0   0   0   5   0   0   0   0   9   0   0   0   7   0   0   0   0  10   0   3   3   9 96 90 87 81 80 79 72 71 66 
   9   0   0   0   0   0   6   0   0   0   7   0   0   0   0   0   5   8   0   0   0   0   0   0   0   0   0   0   0   5   0  10 95 94 91 90 86 82 81 80 79 77 
   3   0   0   0   0   0   6   0   0   0   0   0   0   0   0   0   4   4   0   0   0   0   0   0   0   9   0   0   0   0   0  10 95 94 88 85 84 83 82 79 78 70 
   2   0   0   0   0   4   0   0   0   0   0   0   0   0   0   0   0   0  10   0   0   0   0   0   0   2   5   0   0   0   0   7 89 84 82 80 79 78 66 
   9   0   0   0   0   0   0   0   0   0   0   0   0   7   8   0   0   0   0   0   8   8   0   0   0   0   0   0  10   6   0   4 86 72 71 60 
   7   0   0   0   0   0   0   0   0   0   0   7   0   0   0   0   0   0   0   9   6   0   0   0   0   0   0   0   0   0   0   7 93 90 84 82 81 79 74 
   2   0   0   0  10   0   0   0   0   0   0   0   0   0   4   0   0   5   0   0   0   0   5   0   0   0   0   8   0   0   0   6 89 86 82 81 79 70 
   6   0   0   0   0   6   0   0   0   0   0   3   0   0   4   0   0   0   0   0   0   0   6   0   0   0   0   0   4   0   0   6 92 89 83 81 80 78 
   5   0   8   0   0   0   0   0   7   0   0   0   0   0   0   0   0   0   0   0   0   0   0   0   6   0   5   4   0   0   0   6 98 88 87 85 81 80 
   3   0   0   0   0   0   0   0   0   0   0   0   0   4   7   3   0   0   0   0   0   0   0   0   0   0   0   0   0   0   0   6 96 89 86 83 82 78 
   4   0   0   0   0   0   0   0   0   0   0   0   0   0   0   0   0   0   0   0   8   0   0   0   0   0  10   0  10   0   0   5 91 90 81 79 78 
   1   0   5   5   0   0   0   0   0   0   0   0   8   0   0   3   0   0   0   0   0   0   0   0   0   0   0   0   0   0   0   3 81 73 71 
   4   0   0   0   0   0   6   0   0   0   0   0  10   0   0   8   8   0   0   0   0   0   0   0   0   0   0   0   0   0   0   4 90 82 80 78 
   9   0   7   0   0   0   0   0   0   0   0   0   0   0   0   0   0   0   0   0   0   0   0   0   0   0   0   0   0   0   0   4 97 92 87 79 
   9   0   0   0   0   0   0   0   6   0   0   0   0   0   0   0   0   6   0   0   0   0   0   0   0   0   0   0   0   0   0   4 92 83 80 79 
   4   0   0   7   0   0   0   7   0   0   0   0   0   0   0   0   0   0   0   0   0   0   0   0   0   0   0   0   0   0   0   4 88 84 82 78 
   9   0   0   0   0   0   6   7   0   0   0   0   0   0   6   8   0   0   0   0   0   0   0   0   0   0   0   0   0   0   0   4 93 91 82 79 
  10   0   0   0   0   0   0   0   3   0   0   0   0   0   0   9   7   0   0   0   0   4   0   0   0   0   0   0   0   0   0   3 86 83 82 
  10   0   0   0   0   0   0   0   0  10   0   7   0   0   0   0   0   0   8   0   0   0   0   0   0   0   0   0   0   0   0   3 92 87 78 
   3   0   0   0   0   0   0   0   0   6   0   0   4   0   0   0   0   0   0   0   0   0   0   0   0   0   0   0   0   0   0   2 86 85 
   1   0   0   0   0   0   0   0   0   0   0   0   3   0   0   0   7   0   2   0   9   0   0   0   0   0  10   0   0   0   0   2 83 78 
   2   0   0   5   0   0   0   0   0   0   0   0   0   6   0   0   0   0   7   0   0   5   0   0   0   0   0   0   0   2   0   2 85 83 
   7   0   0   0   0   0   0   4   0   0   0   7   0   0   0   5   0   0   5   0   7   0   0   0   0   0   0   0   0   0   0   2 93 84 
   3   0   0   0   5   0   0   5   0   6   0   0   0   7   7   0   0   0   0   0   0   0   0   0   0   0   0   0   4   0   0   1 80 
   8   6   0   0   7   0   0  10   0   5   0   0   0   0   0   0   8   0   0   0   0   0   4   0   0   0   0   0   0   0   0   1 78 
   5   7   0   0   0   0   6   7   0   0   0   0   0   0   0   0   0   0   0   0   0   0   0   0   0   4   0   0   0   0   0   1 78 
  10   0   0   0   6   0   0   0   0   0   0   0   0   0   0   0   0   0   0   0   0   0   0   0   7   0   0   0   0   0   0   1 79 
   4   0   0   0   0   0   0   0   0   0   0  10   0   0   0   0   0   0   0  10   0   8   5   0   0  10   0   0   0   0   0   1 78 
   1   0   0   0   0   8   0   0  10   0   0   0   0   0   0   0   0   0   9   0   0   0   0   5   0   0   0   0   0   0   0   1 78 
   1   0   0   0   0   0   0   0   0   0   0   0   5   0   0   0   0   0   0   0   0   0   0   0   0   0   0   0   6   0   1   1 81 
   9   7   0   0   0   0   0   0   0   0   3   0   0   9   0   0   0   0   3   0   0   0   0   0   0   7   7   0   0   0   4   1 78 
   1   0   0   0   0   0   0   0   0   4   0   0   0   4   5  10   0   0   0   0   0   0   0   0   0   0   0   0   0   8   0   1 102
   6   0   0   0   0   6   0   0   0   0   8   0   0   0   0   0   0   0   0   0   5   0   0   0   0   0   0   0   0   0   0   1 102
   2   6   0   0   0   0   8   0   0   9   0   6   0   0   0   0   0   0   0   0   4   0   0   0   0   0   0   0   0   0   0   1 102
   1   0   0   0   0   0   0   0   9   0   4   0   5   3   0   0   0   0   0   0   0   0   0   0   0   0   0   0   0   0   6   1 102
  10   0   0   0   0   0   0   0   0   0   0   5   8   0   5   0   0   0   0   0   0   0   0   0   0   0   0   0   0   0   8   1 102
   8   0   0   5   0   0   8   0   7   0  10   0   0   0   0   0   0   0   0   0   0   0   0   0   0   0   0   0   0   0   0   1 102
   7   0   7   0   0   0   0   0   0   0   6   0   0   0   0   0   0   0   0   0   0   8   0   0   0   0   0   0   0   0   0   1 102
   5   0   0   0   3   0   4   0   0   0   0   0   0   0   0   0   5   0   7   0   0   0   0   0  10   0   0   0   0   0   0   1 102
   1   0   0   6   0   6   0   0   0   0   0   0   0   0   5   0   0   8   0   0   0   0   0   0   0   0   0   5  10   0   0   1 102
   3   0   0   0   0   0   0   0   0   0   2   0   0   0   0   0   0   0   0   0   0   0   0   0   0   0   5   0   0   0   0   1 102
   2   5   0   0   0   0   0   0   0   0   0   0   0  10   0   0   0   0   0   0   0   0   6   0   0   6   0   7   0   0   0   1 102
   4   0   0   0   0   0   0   0   0   0   0   0   0   0   7   0   0   4   0   0   0   0   0   0   0   0   0   5   0   0   0   1 102
   6   0   0   0   0   0   0   0   0   0   0   0   4   0   0   0   0   0   0   0   0   0   0   0   0   7   5   0   0   0   0   1 102
   3   0   0   0   0   0   0   0   0   0   0   0   0   0   0   0   0   0   0   0   0   0   0   0   0   6   0   0   0   0   0   1 102
   2   0   0   0   0   0   3   0   0   0   0   8   0   7   0   0   0   0   0   0   5   0   0   0   0   0   0   0   0   0   0   1 102
   4   0   0   0   0   0   0   0   5   0   0   0   0   0   0   0   0   0   0   0   0   0   0   0   0   0   0   0   0   0   0   1 102
   5   0   0   0   0   0   0   0   0   0   0   0   8   0   0   0   0   0   0   0   0   0   0   0   0   0   0   0   0   0   0   1 102
   9   0   0   0   0  10   0   0   0   0   5   6   0   8   0   0   0   5   0   0   0   0   4   0   0   0   0   0   0   0   0   1 102
   6   0   0   0   7   6   0   0   0   0   0   0   0   0  10   5   0   0   0   0   0   0   2   0   0   0   0   0   0   0   0   1 102
   4   0   8   4   0   0   0   0   0   4   0   0   6   0   0   0   0   0   0   0   0   0   0   0   0   0   7   0   0   0   7   1 102
   7   0   0   0   0   8   0   0   0   0  10   0   9   0   0   0   0   0   0   0   0   8   0   0   0   0   0   0   0   0   0   1 102
   8   0   0   0  10   0   8   0   0   0   0   0   7   0   0   0   0   0   0   0   0   0   0   0   0   0   6   0   0   0   0   1 102
   1   0   0   6   0   0   0   0   0   0   0   0   0   0   0   0   0   0   0   0   7   0   0   0   0   0   0  10   0   0   7   1 102
   2   0   0   0   0   0   0   0   0   0   0   0   0   0   0   0   0   0   5   0   7   0   0   0   0   0   5   0   0   0   7   1 102
   0   0   0   0   0   0   0   0   0   0   0   0   0   0   0   0   0   0   0   0   0   0   0   0   0   0   0   0   0   0   0   0 
